Total weight: 683.9073021835229
Route 1: 0 21 22 27 30 28 26 23 18 19 16 14 12 15 17 13 25 9 11 10 8 0 
Route 2: 0 20 24 29 6 32 33 31 35 37 38 39 36 34 52 50 51 44 46 45 42 41 43 47 48 0 
Route 3: 0 67 63 62 74 61 64 66 69 68 65 49 55 54 53 56 58 60 59 57 40 72 96 85 76 71 70 73 80 79 81 78 77 87 0 
Route 4: 0 93 5 75 2 1 99 100 97 92 94 95 98 7 3 4 89 91 88 84 82 83 86 90 0 
